Using license file /home/benedond/gurobi.lic
Using gurobi.env file
Set parameter Threads to value 1
Academic license - for non-commercial use only
Changed value of parameter TimeLimit to 300.0
   Prev: inf  Min: 0.0  Max: inf  Default: inf
Gurobi Optimizer version 9.0.1 build v9.0.1rc0 (linux64)
Optimize a model with 5075 rows, 2520 columns and 19738 nonzeros
Model fingerprint: 0xb7903345
Variable types: 35 continuous, 2485 integer (2450 binary)
Coefficient statistics:
  Matrix range     [2e-01, 5e+03]
  Objective range  [7e-04, 2e-01]
  Bounds range     [1e+00, 1e+00]
  RHS range        [1e+00, 5e+03]

---------------------------------------------------------------------------
Multi-objectives: starting optimization with 1 objectives ... 
---------------------------------------------------------------------------
---------------------------------------------------------------------------

Multi-objectives: optimize objective 1 (min avg power cons) ...
---------------------------------------------------------------------------

Optimize a model with 5075 rows, 2520 columns and 19738 nonzeros
Variable types: 35 continuous, 2485 integer (2450 binary)
Coefficient statistics:
  Matrix range     [2e-01, 5e+03]
  Objective range  [7e-04, 2e-01]
  Bounds range     [1e+00, 1e+00]
  RHS range        [1e+00, 5e+03]
Presolve removed 3224 rows and 1600 columns
Presolve time: 0.26s
Presolved: 1851 rows, 920 columns, 6931 nonzeros
Variable types: 32 continuous, 888 integer (856 binary)

Root relaxation: objective 1.551445e+00, 377 iterations, 0.01 seconds

    Nodes    |    Current Node    |     Objective Bounds      |     Work
 Expl Unexpl |  Obj  Depth IntInf | Incumbent    BestBd   Gap | It/Node Time

     0     0    1.55145    0   82          -    1.55145      -     -    0s
H    0     0                       3.8596028    1.55145  59.8%     -    0s
H    0     0                       3.7240206    1.55145  58.3%     -    0s
H    0     0                       3.6099041    1.55145  57.0%     -    0s
     0     0    1.55145    0  113    3.60990    1.55145  57.0%     -    0s
H    0     0                       3.5570343    1.55145  56.4%     -    0s
     0     0    1.55145    0   95    3.55703    1.55145  56.4%     -    0s
     0     0    1.56022    0  111    3.55703    1.56022  56.1%     -    0s
H    0     0                       3.5418219    1.56022  55.9%     -    0s
     0     0    1.56090    0   96    3.54182    1.56090  55.9%     -    0s
     0     0    1.67526    0  108    3.54182    1.67526  52.7%     -    0s
     0     0    1.67978    0  105    3.54182    1.67978  52.6%     -    0s
     0     0    1.71863    0  131    3.54182    1.71863  51.5%     -    0s
H    0     0                       3.4542055    1.71863  50.2%     -    0s
H    0     0                       3.2695137    1.71863  47.4%     -    0s
     0     0    1.72109    0  114    3.26951    1.72109  47.4%     -    0s
     0     0    1.77679    0  162    3.26951    1.77679  45.7%     -    0s
     0     0    1.78967    0  146    3.26951    1.78967  45.3%     -    0s
     0     0    1.80534    0  142    3.26951    1.80534  44.8%     -    0s
     0     0    1.81936    0  154    3.26951    1.81936  44.4%     -    0s
     0     0    1.84977    0  155    3.26951    1.84977  43.4%     -    1s
     0     0    1.85579    0  169    3.26951    1.85579  43.2%     -    1s
     0     0    1.85600    0  169    3.26951    1.85600  43.2%     -    1s
     0     0    1.85614    0  173    3.26951    1.85614  43.2%     -    1s
     0     0    1.85620    0  171    3.26951    1.85620  43.2%     -    1s
     0     0    1.86892    0  145    3.26951    1.86892  42.8%     -    1s
H    0     0                       3.0109247    1.86892  37.9%     -    1s
     0     0    1.87044    0  156    3.01092    1.87044  37.9%     -    1s
     0     0    1.87116    0  165    3.01092    1.87116  37.9%     -    1s
     0     0    1.87169    0  162    3.01092    1.87169  37.8%     -    1s
     0     0    1.87179    0  174    3.01092    1.87179  37.8%     -    1s
     0     0    1.87588    0  162    3.01092    1.87588  37.7%     -    1s
     0     0    1.87762    0  162    3.01092    1.87762  37.6%     -    1s
     0     0    1.87847    0  166    3.01092    1.87847  37.6%     -    1s
     0     0    1.87861    0  170    3.01092    1.87861  37.6%     -    1s
     0     0    1.88098    0  186    3.01092    1.88098  37.5%     -    1s
     0     0    1.88169    0  191    3.01092    1.88169  37.5%     -    1s
     0     0    1.88186    0  199    3.01092    1.88186  37.5%     -    1s
     0     0    1.88216    0  200    3.01092    1.88216  37.5%     -    1s
     0     0    1.88236    0  196    3.01092    1.88236  37.5%     -    1s
     0     0    1.88242    0  198    3.01092    1.88242  37.5%     -    1s
     0     0    1.88853    0  198    3.01092    1.88853  37.3%     -    1s
H    0     0                       2.9520754    1.88853  36.0%     -    1s
     0     0    1.89011    0  206    2.95208    1.89011  36.0%     -    1s
     0     0    1.89121    0  205    2.95208    1.89121  35.9%     -    1s
     0     0    1.89164    0  219    2.95208    1.89164  35.9%     -    1s
     0     0    1.89184    0  208    2.95208    1.89184  35.9%     -    1s
     0     0    1.89199    0  213    2.95208    1.89199  35.9%     -    1s
     0     0    1.89634    0  180    2.95208    1.89634  35.8%     -    1s
     0     0    1.89804    0  212    2.95208    1.89804  35.7%     -    1s
     0     0    1.89864    0  214    2.95208    1.89864  35.7%     -    1s
     0     0    1.89879    0  213    2.95208    1.89879  35.7%     -    1s
     0     0    1.90206    0  178    2.95208    1.90206  35.6%     -    1s
H    0     0                       2.9469726    1.90206  35.5%     -    1s
     0     0    1.90291    0  202    2.94697    1.90291  35.4%     -    1s
     0     0    1.90306    0  188    2.94697    1.90306  35.4%     -    1s
     0     0    1.90610    0  212    2.94697    1.90610  35.3%     -    1s
     0     0    1.90688    0  211    2.94697    1.90688  35.3%     -    1s
     0     0    1.90692    0  218    2.94697    1.90692  35.3%     -    1s
     0     0    1.90941    0  190    2.94697    1.90941  35.2%     -    1s
     0     0    1.91021    0  197    2.94697    1.91021  35.2%     -    1s
     0     0    1.91056    0  199    2.94697    1.91056  35.2%     -    1s
     0     0    1.91066    0  208    2.94697    1.91066  35.2%     -    1s
     0     0    1.91209    0  203    2.94697    1.91209  35.1%     -    1s
     0     0    1.91285    0  199    2.94697    1.91285  35.1%     -    1s
     0     0    1.91308    0  233    2.94697    1.91308  35.1%     -    1s
     0     0    1.91318    0  206    2.94697    1.91318  35.1%     -    1s
     0     0    1.91419    0  230    2.94697    1.91419  35.0%     -    1s
     0     0    1.91454    0  229    2.94697    1.91454  35.0%     -    1s
     0     0    1.91477    0  227    2.94697    1.91477  35.0%     -    1s
     0     0    1.91485    0  233    2.94697    1.91485  35.0%     -    1s
     0     0    1.91585    0  228    2.94697    1.91585  35.0%     -    2s
     0     0    1.91585    0  215    2.94697    1.91585  35.0%     -    2s
H    0     0                       2.9258767    1.91603  34.5%     -    4s
     0     2    1.91603    0  213    2.92588    1.91603  34.5%     -    4s
    49    49    2.09745   35  158    2.92588    1.91985  34.4%   188    5s
H  397   337                       2.9193288    1.93158  33.8%  81.8    7s
   525   439    2.23267   28  225    2.91933    1.93611  33.7%  75.7   10s
H  530   420                       2.9154315    1.93753  33.5%  75.0   10s
H  534   401                       2.9097466    1.94273  33.2%  74.5   10s
H  561   397                       2.9003493    1.95602  32.6%  70.9   13s
   580   410    2.21706   26  256    2.90035    1.95890  32.5%  68.6   15s
H  581   389                       2.8890480    1.95897  32.2%  68.4   15s
H  581   368                       2.8742124    1.95897  31.8%  68.4   19s
   585   372    1.95982   12  229    2.87421    1.95982  31.8%  88.0   20s
   677   426    2.16420   58  115    2.87421    1.97885  31.2%   121   25s
H  785   419                       2.8464110    1.97885  30.5%   112   26s
   998   463    2.69618   93   64    2.84641    1.98415  30.3%   110   30s
  1470   588    2.22999   28  140    2.84641    2.01086  29.4%  97.0   35s
  1871   838    2.50831   13  187    2.84641    2.05428  27.8%  93.9   40s
  2251  1119    2.15078   19  171    2.84641    2.07874  27.0%  93.3   45s
H 2413  1232                       2.8305959    2.08031  26.5%  97.5   51s
  2465  1283    2.27099   50  152    2.83060    2.08031  26.5%   104   55s
  2863  1561    2.26846   27  137    2.83060    2.09516  26.0%   102   60s
H 2958  1513                       2.7904178    2.10167  24.7%   102   65s
  3175  1655    2.51263   65  136    2.79042    2.10352  24.6%   104   70s
  3562  1949    2.18973   29  164    2.79042    2.10657  24.5%   103   75s
  3937  2191    2.41988   43   98    2.79042    2.11394  24.2%   100   80s
  4332  2491    2.34915   48  196    2.79042    2.11918  24.1%  97.0   85s
  4585  2643    2.49046   48  120    2.79042    2.12693  23.8%  98.8   90s
  5027  2935    2.37897   47  135    2.79042    2.13220  23.6%  97.4   95s
  5102  2993    2.71723   56  215    2.79042    2.13220  23.6%  96.6  101s
  5131  3012    2.68615   73  225    2.79042    2.13220  23.6%  96.0  105s
  5137  3018    2.13220   25  147    2.79042    2.13220  23.6%  97.7  110s
  5173  3042    2.13220   43  159    2.79042    2.13220  23.6%   100  115s
  5362  3110    2.28610   31  127    2.79042    2.13220  23.6%   101  120s
  5558  3161    2.50057   44  136    2.79042    2.13220  23.6%   104  125s
  5884  3252    2.59642   64   83    2.79042    2.13220  23.6%   104  130s
H 5907  3106                       2.7770411    2.13220  23.2%   104  133s
  6010  3133    2.27084   41  135    2.77704    2.13220  23.2%   103  135s
  6416  3288    2.48244   36  106    2.77704    2.13220  23.2%   101  140s
  6781  3400    2.75301   84   59    2.77704    2.13220  23.2%   101  145s
  7206  3595    2.45237   43  148    2.77704    2.13220  23.2%   100  150s
  7572  3707    2.76174   70   99    2.77704    2.13220  23.2%   100  155s
  7657  3718    2.57232   58  142    2.77704    2.13220  23.2%   102  160s
  8038  3884     cutoff   56         2.77704    2.13220  23.2%   101  165s
  8457  4004    2.30776   39  166    2.77704    2.13733  23.0%   101  170s
  8961  4187    2.28357   59  135    2.77704    2.14107  22.9%  99.2  175s
  9331  4336    2.60646   93   95    2.77704    2.14581  22.7%  99.4  180s
  9608  4430    2.35891   53  150    2.77704    2.15398  22.4%   100  185s
  9966  4537    2.49681   38  180    2.77704    2.15777  22.3%  99.3  190s
 10292  4625    2.40960   47  112    2.77704    2.16392  22.1%   100  195s
 10808  4800    2.69324   51   85    2.77704    2.16763  21.9%  99.4  200s
 11208  4947    2.34735   47  134    2.77704    2.17236  21.8%  99.4  205s
 11546  5043    2.38848   43  149    2.77704    2.17737  21.6%   100  210s
 11805  5119    2.49888   66  114    2.77704    2.18123  21.5%   101  223s
 11953  5146    2.53863   49  132    2.77704    2.18269  21.4%   101  225s
 12281  5234    2.70992   45  131    2.77704    2.18928  21.2%   101  230s
 12657  5380     cutoff   53         2.77704    2.19242  21.1%   101  235s
 13150  5529    2.59387   36   96    2.77704    2.19799  20.9%   101  240s
 13617  5610    2.24809   37  203    2.77704    2.20527  20.6%   101  245s
 13824  5716    2.67394   45   82    2.77704    2.20794  20.5%   102  250s
 14065  5871    2.67347   59   80    2.77704    2.21119  20.4%   102  255s
 14500  6118    2.38140   39  163    2.77704    2.21701  20.2%   102  260s
 14681  6223    2.30186   40  161    2.77704    2.22095  20.0%   102  267s
 14823  6319     cutoff   52         2.77704    2.22228  20.0%   102  270s
 15166  6531    2.46751   62  130    2.77704    2.22841  19.8%   103  275s

Cutting planes:
  Learned: 2
  Cover: 64
  Implied bound: 90
  Projected implied bound: 62
  MIR: 307
  StrongCG: 1
  Flow cover: 395
  GUB cover: 13
  Mod-K: 2
  RLT: 13
  Relax-and-lift: 359

Explored 15303 nodes (1577407 simplex iterations) in 300.01 seconds
Thread count was 1 (of 4 available processors)

Solution count 10: 2.77704 2.79042 2.8306 ... 2.91933

Time limit reached
Best objective 2.777041114632e+00, best bound 2.229022445339e+00, gap 19.7339%

---------------------------------------------------------------------------
Multi-objectives: stopped in 300.02 seconds, solution count 10
Time Limit reached

